c File: data_files/evolved_graphs/g7319.col
c
c Auto generated graph
c
p edge 100 90
e 1 61
e 1 62
e 2 45
e 3 55
e 4 53
e 4 64
e 5 58
e 5 59
e 5 86
e 6 85
e 7 50
e 7 83
e 8 46
e 8 84
e 9 14
e 9 60
e 9 89
e 10 52
e 10 71
e 11 44
e 11 80
e 12 82
e 12 99
e 13 80
e 13 93
e 14 28
e 15 34
e 16 25
e 16 42
e 17 29
e 17 74
e 18 39
e 19 21
e 19 96
e 20 27
e 20 72
e 20 99
e 21 68
e 22 41
e 22 52
e 23 76
e 23 82
e 24 26
e 24 41
e 25 29
e 26 28
e 26 83
e 27 59
e 27 60
e 29 48
e 30 54
e 31 67
e 32 90
e 33 37
e 35 62
e 35 66
e 36 66
e 36 67
e 38 40
e 39 86
e 42 48
e 43 64
e 43 72
e 44 59
e 45 60
e 46 48
e 47 100
e 49 51
e 50 94
e 53 74
e 53 93
e 56 98
e 57 58
e 57 65
e 63 97
e 65 92
e 69 95
e 70 78
e 72 93
e 73 91
e 75 88
e 75 90
e 77 81
e 78 83
e 79 84
e 79 95
e 87 89
e 88 94
e 90 92
e 91 96
